Grasp exp. instance_n_25_m_5_id_3.lp tipoLifted 0 szPool 5 nIteration 50 alpha 0.8 
Academic license - for non-commercial use only
Read LP format model from file ../input/instancesGenerated/instance_n_25_m_5_id_3.lp
Reading time = 0.00 seconds
: 5 rows, 25 columns, 125 nonzeros
Optimize a model with 5 rows, 25 columns and 125 nonzeros
Variable types: 0 continuous, 25 integer (25 binary)
Coefficient statistics:
  Matrix range     [1e+00, 1e+01]
  Objective range  [2e+00, 1e+01]
  Bounds range     [1e+00, 1e+00]
  RHS range        [6e+01, 8e+01]
Found heuristic solution: objective 77.0000000

Explored 0 nodes (0 simplex iterations) in 0.00 seconds
Thread count was 1 (of 8 available processors)

Solution count 1: 77 
No other solutions better than 0

Solution limit reached
Best objective 7.700000000000e+01, best bound -, gap -
C_1:	 3.00 x_1  = 0.000000 + 6.00 x_2  = 1.000000 + 5.00 x_3  = 1.000000 + 7.00 x_4  = 0.000000 + 5.00 x_5  = 0.000000 + 7.00 x_6  = 1.000000 + 5.00 x_7  = 1.000000 + 6.00 x_8  = 0.000000 + 2.00 x_9  = 1.000000 + 10.00 x_10  = 0.200000 + 10.00 x_11  = 0.000000 + 8.00 x_12  = 0.000000 + 9.00 x_13  = 0.000000 + 5.00 x_14  = 1.000000 + 2.00 x_15  = 0.500000 + 9.00 x_16  = 1.000000 + 8.00 x_17  = 1.000000 + 9.00 x_18  = 0.000000 + 8.00 x_19  = 0.500000 + 5.00 x_20  = 1.000000 + 4.00 x_21  = 0.000000 + 7.00 x_22  = 1.000000 + 4.00 x_23  = 0.000000 + 6.00 x_24  = 1.000000 + 5.00 x_25  = 1.000000 <= 77.00
C_2:	 10.00 x_1  = 0.000000 + 10.00 x_2  = 1.000000 + 6.00 x_3  = 1.000000 + 4.00 x_4  = 0.000000 + 8.00 x_5  = 0.000000 + 5.00 x_6  = 1.000000 + 6.00 x_7  = 1.000000 + 5.00 x_8  = 0.000000 + 1.00 x_9  = 1.000000 + 5.00 x_10  = 0.200000 + 2.00 x_11  = 0.000000 + 7.00 x_12  = 0.000000 + 9.00 x_13  = 0.000000 + 7.00 x_14  = 1.000000 + 8.00 x_15  = 0.500000 + 8.00 x_16  = 1.000000 + 6.00 x_17  = 1.000000 + 8.00 x_18  = 0.000000 + 8.00 x_19  = 0.500000 + 2.00 x_20  = 1.000000 + 9.00 x_21  = 0.000000 + 8.00 x_22  = 1.000000 + 9.00 x_23  = 0.000000 + 7.00 x_24  = 1.000000 + 7.00 x_25  = 1.000000 <= 82.00
C_3:	 5.00 x_1  = 0.000000 + 3.00 x_2  = 1.000000 + 3.00 x_3  = 1.000000 + 9.00 x_4  = 0.000000 + 8.00 x_5  = 0.000000 + 8.00 x_6  = 1.000000 + 10.00 x_7  = 1.000000 + 9.00 x_8  = 0.000000 + 5.00 x_9  = 1.000000 + 3.00 x_10  = 0.200000 + 9.00 x_11  = 0.000000 + 10.00 x_12  = 0.000000 + 10.00 x_13  = 0.000000 + 3.00 x_14  = 1.000000 + 10.00 x_15  = 0.500000 + 6.00 x_16  = 1.000000 + 4.00 x_17  = 1.000000 + 9.00 x_18  = 0.000000 + 6.00 x_19  = 0.500000 + 1.00 x_20  = 1.000000 + 8.00 x_21  = 0.000000 + 5.00 x_22  = 1.000000 + 8.00 x_23  = 0.000000 + 5.00 x_24  = 1.000000 + 2.00 x_25  = 1.000000 <= 79.00
C_4:	 10.00 x_1  = 0.000000 + 4.00 x_2  = 1.000000 + 2.00 x_3  = 1.000000 + 8.00 x_4  = 0.000000 + 2.00 x_5  = 0.000000 + 8.00 x_6  = 1.000000 + 3.00 x_7  = 1.000000 + 4.00 x_8  = 0.000000 + 3.00 x_9  = 1.000000 + 3.00 x_10  = 0.200000 + 3.00 x_11  = 0.000000 + 10.00 x_12  = 0.000000 + 2.00 x_13  = 0.000000 + 4.00 x_14  = 1.000000 + 6.00 x_15  = 0.500000 + 6.00 x_16  = 1.000000 + 2.00 x_17  = 1.000000 + 5.00 x_18  = 0.000000 + 5.00 x_19  = 0.500000 + 6.00 x_20  = 1.000000 + 7.00 x_21  = 0.000000 + 3.00 x_22  = 1.000000 + 10.00 x_23  = 0.000000 + 7.00 x_24  = 1.000000 + 8.00 x_25  = 1.000000 <= 65.00
C_5:	 2.00 x_1  = 0.000000 + 4.00 x_2  = 1.000000 + 3.00 x_3  = 1.000000 + 9.00 x_4  = 0.000000 + 9.00 x_5  = 0.000000 + 6.00 x_6  = 1.000000 + 10.00 x_7  = 1.000000 + 4.00 x_8  = 0.000000 + 7.00 x_9  = 1.000000 + 10.00 x_10  = 0.200000 + 5.00 x_11  = 0.000000 + 7.00 x_12  = 0.000000 + 4.00 x_13  = 0.000000 + 9.00 x_14  = 1.000000 + 9.00 x_15  = 0.500000 + 6.00 x_16  = 1.000000 + 3.00 x_17  = 1.000000 + 10.00 x_18  = 0.000000 + 7.00 x_19  = 0.500000 + 6.00 x_20  = 1.000000 + 5.00 x_21  = 0.000000 + 4.00 x_22  = 1.000000 + 9.00 x_23  = 0.000000 + 2.00 x_24  = 1.000000 + 10.00 x_25  = 1.000000 <= 80.00
Solution initial: 104.300000 
Number Constraints Used in Cover:5
GRASP Method!
Number cuts repeat: 0
value: 104.300000
Number Constraints Used in Cover:10
GRASP Method!
Number cuts repeat: 0
value: 104.300000
Number Constraints Used in Cover:17
GRASP Method!
Number cuts repeat: 0
value: 104.300000
Number Constraints Used in Cover:22
GRASP Method!
Number cuts repeat: 0
value: 104.300000
Number Constraints Used in Cover:28
GRASP Method!
Number cuts repeat: 0
value: 104.268012
Number Constraints Used in Cover:35
GRASP Method!
Number cuts repeat: 0
value: 104.268012
Number Constraints Used in Cover:36
GRASP Method!
Number cuts repeat: 0
value: 104.268012
Number Constraints Used in Cover:37
GRASP Method!
Number cuts repeat: 0
value: 104.268012
Number Constraints Used in Cover:46
GRASP Method!
Number cuts repeat: 0
value: 104.268012
Number Constraints Used in Cover:52
GRASP Method!
Number cuts repeat: 0
value: 104.268012
Number Constraints Used in Cover:58
GRASP Method!
Number cuts repeat: 0
value: 104.268012
Number Constraints Used in Cover:63
GRASP Method!
Number cuts repeat: 0
value: 104.268012
Number Constraints Used in Cover:64
GRASP Method!
Number cuts repeat: 0
value: 104.268012
Number Constraints Used in Cover:68
GRASP Method!
Number cuts repeat: 0
value: 104.268012
Number Constraints Used in Cover:69
GRASP Method!
Number cuts repeat: 0
value: 104.268012
Number Constraints Used in Cover:72
GRASP Method!
Number cuts repeat: 0
value: 104.268012
Number Constraints Used in Cover:75
GRASP Method!
Number cuts repeat: 0
value: 104.268012
Number Constraints Used in Cover:82
GRASP Method!
Number cuts repeat: 0
value: 104.268012
Number Constraints Used in Cover:82
GRASP Method!
Number cuts repeat: 0
value: 104.268012
Number Constraints Used in Cover:87
GRASP Method!
Number cuts repeat: 0
value: 104.268012
Number Constraints Used in Cover:91
GRASP Method!
Number cuts repeat: 0
value: 104.268012
Number Constraints Used in Cover:100
GRASP Method!
Number cuts repeat: 0
value: 104.268012
Number Constraints Used in Cover:108
GRASP Method!
Number cuts repeat: 0
value: 104.268012
Number Constraints Used in Cover:110
GRASP Method!
Number cuts repeat: 0
value: 104.268012
Number Constraints Used in Cover:112
GRASP Method!
Number cuts repeat: 0
value: 104.268012
Number Constraints Used in Cover:116
GRASP Method!
Number cuts repeat: 0
value: 104.268012
Number Constraints Used in Cover:121
GRASP Method!
Number cuts repeat: 0
value: 104.268012
Number Constraints Used in Cover:124
GRASP Method!
Number cuts repeat: 0
value: 104.268012
Number Constraints Used in Cover:130
GRASP Method!
Number cuts repeat: 0
value: 104.268012
Number Constraints Used in Cover:135
GRASP Method!
Number cuts repeat: 0
value: 104.268012
Number Constraints Used in Cover:140
GRASP Method!
Number cuts repeat: 0
value: 104.268012
Number Constraints Used in Cover:146
GRASP Method!
Number cuts repeat: 0
value: 104.268012
Number Constraints Used in Cover:146
GRASP Method!
Number cuts repeat: 0
value: 104.268012
Number Constraints Used in Cover:151
GRASP Method!
Number cuts repeat: 0
value: 104.268012
Number Constraints Used in Cover:157
GRASP Method!
Number cuts repeat: 0
value: 104.268012
Number Constraints Used in Cover:160
GRASP Method!
Number cuts repeat: 0
value: 104.258621
Number Constraints Used in Cover:162
GRASP Method!
Number cuts repeat: 0
value: 104.258621
Number Constraints Used in Cover:166
GRASP Method!
Number cuts repeat: 0
value: 104.258621
Number Constraints Used in Cover:168
GRASP Method!
Number cuts repeat: 0
value: 104.258621
Number Constraints Used in Cover:172
GRASP Method!
Number cuts repeat: 0
value: 104.258621
Number Constraints Used in Cover:178
GRASP Method!
Number cuts repeat: 0
value: 104.258621
Number Constraints Used in Cover:183
GRASP Method!
Number cuts repeat: 0
value: 104.258621
Number Constraints Used in Cover:188
GRASP Method!
Number cuts repeat: 0
value: 104.258621
Number Constraints Used in Cover:192
GRASP Method!
Number cuts repeat: 0
value: 104.258621
Number Constraints Used in Cover:197
GRASP Method!
Number cuts repeat: 0
value: 104.258621
Number Constraints Used in Cover:202
GRASP Method!
Number cuts repeat: 0
value: 104.258621
Number Constraints Used in Cover:208
GRASP Method!
Number cuts repeat: 0
value: 104.258621
Number Constraints Used in Cover:217
GRASP Method!
Number cuts repeat: 0
value: 104.258621
Number Constraints Used in Cover:219
GRASP Method!
Number cuts repeat: 0
value: 104.258621
Number Constraints Used in Cover:226
GRASP Method!
Number cuts repeat: 0
value: 104.258621
Number Constraints Used in Cover:233
GRASP Method!
Number cuts repeat: 0
value: 104.258621
Number Constraints Used in Cover:237
GRASP Method!
Number cuts repeat: 0
value: 104.258621
Number Constraints Used in Cover:239
GRASP Method!
Number cuts repeat: 0
value: 104.258621
Number Constraints Used in Cover:244
GRASP Method!
Number cuts repeat: 0
value: 104.258621
Number Constraints Used in Cover:251
GRASP Method!
Number cuts repeat: 0
value: 104.258621
Number Constraints Used in Cover:253
GRASP Method!
Number cuts repeat: 0
value: 104.258621
Number Constraints Used in Cover:257
GRASP Method!
Number cuts repeat: 0
value: 104.258621
Number Constraints Used in Cover:262
GRASP Method!
Number cuts repeat: 0
value: 104.258621
Number Constraints Used in Cover:268
GRASP Method!
Number cuts repeat: 0
value: 104.258621
Number Constraints Used in Cover:274
GRASP Method!
Number cuts repeat: 0
value: 104.258621
Number Constraints Used in Cover:281
GRASP Method!
Number cuts repeat: 0
value: 104.258621
Number Constraints Used in Cover:284
GRASP Method!
Number cuts repeat: 0
value: 104.258621
Number Constraints Used in Cover:288
GRASP Method!
Number cuts repeat: 0
value: 104.258621
Number Constraints Used in Cover:292
GRASP Method!
Number cuts repeat: 0
value: 104.258621
Number Constraints Used in Cover:293
GRASP Method!
Number cuts repeat: 0
value: 104.258621
Number Constraints Used in Cover:301
GRASP Method!
Number cuts repeat: 0
value: 104.258621
Number Constraints Used in Cover:304
GRASP Method!
Number cuts repeat: 0
value: 104.258621
Number Constraints Used in Cover:306
GRASP Method!
Number cuts repeat: 0
value: 104.258621
Number Constraints Used in Cover:309
GRASP Method!
Number cuts repeat: 0
value: 104.258621
Number Constraints Used in Cover:314
GRASP Method!
Number cuts repeat: 0
value: 104.258621
Number Constraints Used in Cover:318
GRASP Method!
Number cuts repeat: 0
value: 104.258621
Number Constraints Used in Cover:321
GRASP Method!
Number cuts repeat: 0
value: 104.258621
Number Constraints Used in Cover:325
GRASP Method!
Number cuts repeat: 0
value: 104.258621
Number Constraints Used in Cover:329
GRASP Method!
Number cuts repeat: 0
value: 104.258621
Number Constraints Used in Cover:331
GRASP Method!
Number cuts repeat: 0
value: 104.258621
Number Constraints Used in Cover:335
GRASP Method!
Number cuts repeat: 0
value: 104.258621
Number Constraints Used in Cover:343
GRASP Method!
Number cuts repeat: 0
value: 104.258621
Number Constraints Used in Cover:343
GRASP Method!
Number cuts repeat: 0
value: 104.258621
Number Constraints Used in Cover:347
GRASP Method!
Number cuts repeat: 0
value: 104.258621
Number Constraints Used in Cover:352
GRASP Method!
Number cuts repeat: 0
value: 104.258621
Number Constraints Used in Cover:353
GRASP Method!
Number cuts repeat: 0
value: 104.258621
Number Constraints Used in Cover:357
GRASP Method!
Number cuts repeat: 0
value: 104.258621
Number Constraints Used in Cover:360
GRASP Method!
Number cuts repeat: 0
value: 104.258621
Number Constraints Used in Cover:366
GRASP Method!
Number cuts repeat: 0
value: 104.258621
Number Constraints Used in Cover:369
GRASP Method!
Number cuts repeat: 0
value: 104.258621
Number Constraints Used in Cover:374
GRASP Method!
Number cuts repeat: 0
value: 104.258621
Number Constraints Used in Cover:377
GRASP Method!
Number cuts repeat: 0
value: 104.258621
Number Constraints Used in Cover:378
GRASP Method!
Number cuts repeat: 0
value: 104.258621
Number Constraints Used in Cover:380
GRASP Method!
Number cuts repeat: 0
value: 104.258621
Number Constraints Used in Cover:385
GRASP Method!
Number cuts repeat: 0
value: 104.258621
Number Constraints Used in Cover:388
GRASP Method!
Number cuts repeat: 0
value: 104.258621
Number Constraints Used in Cover:390
GRASP Method!
Number cuts repeat: 0
value: 104.258621
Number Constraints Used in Cover:391
GRASP Method!
Number cuts repeat: 0
value: 104.258621
Number Constraints Used in Cover:393
GRASP Method!
Number cuts repeat: 0
value: 104.258621
Number Constraints Used in Cover:395
GRASP Method!
Number cuts repeat: 0
value: 104.258621
Number Constraints Used in Cover:400
GRASP Method!
Number cuts repeat: 0
value: 104.258621
Number Constraints Used in Cover:405
GRASP Method!
Number cuts repeat: 0
value: 104.258621
Number Constraints Used in Cover:409
GRASP Method!
Number cuts repeat: 0
value: 104.258621
Number Constraints Used in Cover:413
GRASP Method!
Number cuts repeat: 0
value: 104.258621
Number Constraints Used in Cover:417
GRASP Method!
Number cuts repeat: 0
value: 104.258621
Number Constraints Used in Cover:417
GRASP Method!
Number cuts repeat: 0
value: 104.258621
Number Constraints Used in Cover:422
GRASP Method!
Number cuts repeat: 0
value: 104.258621
Number Constraints Used in Cover:426
GRASP Method!
Number cuts repeat: 0
value: 104.258621
Number Constraints Used in Cover:431
GRASP Method!
Number cuts repeat: 0
value: 104.258621
Number Constraints Used in Cover:432
GRASP Method!
Number cuts repeat: 0
value: 104.258621
Number Constraints Used in Cover:436
GRASP Method!
Number cuts repeat: 0
value: 104.258621
Number Constraints Used in Cover:442
GRASP Method!
Number cuts repeat: 0
value: 104.258621
Number Constraints Used in Cover:442
GRASP Method!
Number cuts repeat: 0
value: 104.258621
Number Constraints Used in Cover:444
GRASP Method!
Number cuts repeat: 0
value: 104.258621
Number Constraints Used in Cover:449
GRASP Method!
Number cuts repeat: 0
value: 104.258621
Number Constraints Used in Cover:451
GRASP Method!
Number cuts repeat: 0
value: 104.258621
Number Constraints Used in Cover:458
GRASP Method!
Number cuts repeat: 0
value: 104.258621
Number Constraints Used in Cover:464
GRASP Method!
Number cuts repeat: 0
value: 104.258621
Number Constraints Used in Cover:468
GRASP Method!
Number cuts repeat: 0
value: 104.258621
Number Constraints Used in Cover:474
GRASP Method!
Number cuts repeat: 0
value: 104.258621
Number Constraints Used in Cover:479
GRASP Method!
Number cuts repeat: 0
value: 104.258621
Number Constraints Used in Cover:483
GRASP Method!
Number cuts repeat: 0
value: 104.258621
Number Constraints Used in Cover:490
GRASP Method!
Number cuts repeat: 0
value: 104.258621
Number Constraints Used in Cover:493
GRASP Method!
Number cuts repeat: 0
value: 104.258621
Number Cuts Final: 491
